Maximize
 obj: 0 X1
Subject To
 c1:
  + 8600 X1 + 9000 X2 + 1690 X3 + 4150 X4 + 4770 X5 + 1630 X6 + 100 X7 + 2770 X8
  + 9810 X9 + 6400 X10
  <= 24460
 obj1:
  + 230 X1 + 870 X2 + 555 X3 + 578 X4 + 995 X5 + 596 X6 + 800 X7 + 819 X8
  + 630 X9 + 504 X10
  >= 1
 obj2:
  + 747 X1 + 816 X2 + 996 X3 + 509 X4 + 700 X5 + 238 X6 + 395 X7 + 870 X8
  + 236 X9 + 292 X10
  >= 2
 obj3:
  + 602 X1 + 556 X2 + 10 X3 + 52 X4 + 303 X5 + 290 X6 + 195 X7 + 264 X8
  + 670 X9 + 299 X10
  >= 3
Binary
 X1
 X2
 X3
 X4
 X5
 X6
 X7
 X8
 X9
 X10
End
